&CONTROL
    calculation = 'scf'
    prefix = 'nps'
    pseudo_dir = './pseudo'
    outdir = './tmp'
    verbosity = 'high'
/
&SYSTEM
    ibrav = 0
    nat = 160
    ntyp = 5
    ecutwfc = 40
    ecutrho = 240
    occupations = 'smearing'
    smearing = 'mp'
    degauss = 0.0001
    starting_magnetization(1) =  0.5
    starting_magnetization(2) = -0.5
    starting_magnetization(3) =  0.0
    starting_magnetization(4) =  0.0
    starting_magnetization(5) =  0.5
    lda_plus_u = .true.
    hubbard_u(1) = 4.0
    hubbard_u(2) = 4.0
    hubbard_u(5) = 4.0
    nosym = .true.
    noncolin = .true.
    lspinorb = .false.
    lda_plus_u_kind = 1
    constrained_magnetization = 'hubbard'
    angle1(5) = 30.0
    angle2(5) = 0.0
/
&ELECTRONS
    mixing_beta = 0.3
    conv_thr = 1.d-10
/

ATOMIC_SPECIES
Ni1 58.69 Ni.pz-n-rrkjus_psl.0.1.UPF
Ni2 58.69 Ni.pz-n-rrkjus_psl.0.1.UPF
P   30.97 P.pz-n-rrkjus_psl.0.1.UPF
S   32.07 S.pz-n-rrkjus_psl.0.1.UPF
Ni3 58.69 Ni.pz-n-rrkjus_psl.0.1.UPF

K_POINTS automatic
1 1 1 0 0 0

CELL_PARAMETERS angstrom
       23.2479991913         0.0000000000         0.0000000000
        0.0000000000        20.1400012970         0.0000000000
        0.0000000000         0.0000000000        12.0000000000

ATOMIC_POSITIONS angstrom
Ni3      0.000000000         0.000000000         0.000000000
Ni1      0.000000000        10.069998741         0.000000000
Ni1      5.811999321         0.000000000         0.000000000
Ni1      5.811999321        10.069998741         0.000000000
Ni1     11.623998642         0.000000000         0.000000000
Ni1     11.623998642        10.069998741         0.000000000
Ni1     17.435998917         0.000000000         0.000000000
Ni1     17.435998917        10.069998741         0.000000000
Ni2      0.000000000         3.363379478         0.000000000
Ni2      0.000000000        13.433381081         0.000000000
Ni2      5.811999321         3.363379478         0.000000000
Ni2      5.811999321        13.433381081         0.000000000
Ni2     11.623998642         3.363379478         0.000000000
Ni2     11.623998642        13.433381081         0.000000000
Ni2     17.435998917         3.363379478         0.000000000
Ni2     17.435998917        13.433381081         0.000000000
Ni2      2.905999660         5.034998417         0.000000000
Ni2      2.905999660        15.104999542         0.000000000
Ni2      8.717999458         5.034998417         0.000000000
Ni2      8.717999458        15.104999542         0.000000000
Ni2     14.529997826         5.034998417         0.000000000
Ni2     14.529997826        15.104999542         0.000000000
Ni2     20.341997147         5.034998417         0.000000000
Ni2     20.341997147        15.104999542         0.000000000
Ni1      2.905999660        18.468381882         0.000000000
Ni1      2.905999660         8.398380280         0.000000000
Ni1      8.717999458        18.468381882         0.000000000
Ni1      8.717999458         8.398380280         0.000000000
Ni1     14.529997826        18.468381882         0.000000000
Ni1     14.529997826         8.398380280         0.000000000
Ni1     20.341997147        18.468381882         0.000000000
Ni1     20.341997147         8.398380280         0.000000000
P        0.011521310        16.786691666         1.073850870
P        0.011521310         6.716689587         1.073850870
P        5.823520660        16.786691666         1.073850870
P        5.823520660         6.716689587         1.073850870
P       11.635519981        16.786691666         1.073850870
P       11.635519981         6.716689587         1.073850870
P       17.447519302        16.786691666         1.073850870
P       17.447519302         6.716689587         1.073850870
P        5.800478458        16.786691666        -1.073851585
P        5.800478458         6.716689587        -1.073851585
P       11.612477303        16.786691666        -1.073851585
P       11.612477303         6.716689587        -1.073851585
P       17.424476624        16.786691666        -1.073851585
P       17.424476624         6.716689587        -1.073851585
P       -0.011522293        16.786691666        -1.073851585
P       -0.011522293         6.716689587        -1.073851585
P        2.917520285         1.681689501         1.073850870
P        2.917520285        11.751689911         1.073850870
P        8.729520798         1.681689501         1.073850870
P        8.729520798        11.751689911         1.073850870
P       14.541519165         1.681689501         1.073850870
P       14.541519165        11.751689911         1.073850870
P       20.353517532         1.681689501         1.073850870
P       20.353517532        11.751689911         1.073850870
P        2.894478321         1.681689501        -1.073851585
P        2.894478321        11.751689911        -1.073851585
P        8.706478119         1.681689501        -1.073851585
P        8.706478119        11.751689911        -1.073851585
P       14.518475533         1.681689501        -1.073851585
P       14.518475533        11.751689911        -1.073851585
P       20.330476761         1.681689501        -1.073851585
P       20.330476761        11.751689911        -1.073851585
S        3.840311766        16.786691666         1.542590380
S        3.840311766         6.716689587         1.542590380
S        9.652311325        16.786691666         1.542590380
S        9.652311325         6.716689587         1.542590380
S       15.464310646        16.786691666         1.542590380
S       15.464310646         6.716689587         1.542590380
S       21.276309967        16.786691666         1.542590380
S       21.276309967         6.716689587         1.542590380
S        1.971687198        16.786691666        -1.542591572
S        1.971687198         6.716689587        -1.542591572
S        7.783687115        16.786691666        -1.542591572
S        7.783687115         6.716689587        -1.542591572
S       13.595684052        16.786691666        -1.542591572
S       13.595684052         6.716689587        -1.542591572
S       19.407684326        16.786691666        -1.542591572
S       19.407684326         6.716689587        -1.542591572
S        0.934312582         1.681689501         1.542590380
S        0.934312582        11.751689911         1.542590380
S        6.746311665         1.681689501         1.542590380
S        6.746311665        11.751689911         1.542590380
S       12.558310509         1.681689501         1.542590380
S       12.558310509        11.751689911         1.542590380
S       18.370309830         1.681689501         1.542590380
S       18.370309830        11.751689911         1.542590380
S        4.877686501         1.681689501        -1.542591572
S        4.877686501        11.751689911        -1.542591572
S       10.689684868         1.681689501        -1.542591572
S       10.689684868        11.751689911        -1.542591572
S       16.501686096         1.681689501        -1.542591572
S       16.501686096        11.751689911        -1.542591572
S       22.313684464         1.681689501        -1.542591572
S       22.313684464        11.751689911        -1.542591572
S        0.989720345        18.496576309         1.543858886
S        0.989720345         8.426574707         1.543858886
S        6.801719666        18.496576309         1.543858886
S        6.801719666         8.426574707         1.543858886
S       12.613718987        18.496576309         1.543858886
S       12.613718987         8.426574707         1.543858886
S       18.425718307        18.496576309         1.543858886
S       18.425718307         8.426574707         1.543858886
S        4.822278976         5.006803036        -1.543859959
S        4.822278976        15.076804161        -1.543859959
S       10.634277344         5.006803036        -1.543859959
S       10.634277344        15.076804161        -1.543859959
S       16.446277618         5.006803036        -1.543859959
S       16.446277618        15.076804161        -1.543859959
S       22.258277893         5.006803036        -1.543859959
S       22.258277893        15.076804161        -1.543859959
S        4.822278976        18.496576309        -1.543859959
S        4.822278976         8.426574707        -1.543859959
S       10.634277344        18.496576309        -1.543859959
S       10.634277344         8.426574707        -1.543859959
S       16.446277618        18.496576309        -1.543859959
S       16.446277618         8.426574707        -1.543859959
S       22.258277893        18.496576309        -1.543859959
S       22.258277893         8.426574707        -1.543859959
S        0.989720345         5.006803036         1.543858886
S        0.989720345        15.076804161         1.543858886
S        6.801719666         5.006803036         1.543858886
S        6.801719666        15.076804161         1.543858886
S       12.613718987         5.006803036         1.543858886
S       12.613718987        15.076804161         1.543858886
S       18.425718307         5.006803036         1.543858886
S       18.425718307        15.076804161         1.543858886
S        3.895720005         3.391574860         1.543858886
S        3.895720005        13.461575508         1.543858886
S        9.707719803         3.391574860         1.543858886
S        9.707719803        13.461575508         1.543858886
S       15.519719124         3.391574860         1.543858886
S       15.519719124        13.461575508         1.543858886
S       21.331718445         3.391574860         1.543858886
S       21.331718445        13.461575508         1.543858886
S        1.916279435        -0.028196335        -1.543859959
S        1.916279435        10.041803360        -1.543859959
S        7.728278637        -0.028196335        -1.543859959
S        7.728278637        10.041803360        -1.543859959
S       13.540276527        -0.028196335        -1.543859959
S       13.540276527        10.041803360        -1.543859959
S       19.352277756        -0.028196335        -1.543859959
S       19.352277756        10.041803360        -1.543859959
S        1.916279435         3.391574860        -1.543859959
S        1.916279435        13.461575508        -1.543859959
S        7.728278637         3.391574860        -1.543859959
S        7.728278637        13.461575508        -1.543859959
S       13.540276527         3.391574860        -1.543859959
S       13.540276527        13.461575508        -1.543859959
S       19.352277756         3.391574860        -1.543859959
S       19.352277756        13.461575508        -1.543859959
S        3.895720005        -0.028196335         1.543858886
S        3.895720005        10.041803360         1.543858886
S        9.707719803        -0.028196335         1.543858886
S        9.707719803        10.041803360         1.543858886
S       15.519719124        -0.028196335         1.543858886
S       15.519719124        10.041803360         1.543858886
S       21.331718445        -0.028196335         1.543858886
S       21.331718445        10.041803360         1.543858886

ATOMIC_FORCES
Ni3   -0.5  0.0 -0.8660254037844386
Ni1    0.0  0.0 -1.0
Ni1    0.0  0.0 -1.0
Ni1    0.0  0.0 -1.0
Ni1    0.0  0.0 -1.0
Ni1    0.0  0.0 -1.0
Ni1    0.0  0.0 -1.0
Ni1    0.0  0.0 -1.0
Ni2    0.0  0.0  1.0
Ni2    0.0  0.0  1.0
Ni2    0.0  0.0  1.0
Ni2    0.0  0.0  1.0
Ni2    0.0  0.0  1.0
Ni2    0.0  0.0  1.0
Ni2    0.0  0.0  1.0
Ni2    0.0  0.0  1.0
Ni2    0.0  0.0  1.0
Ni2    0.0  0.0  1.0
Ni2    0.0  0.0  1.0
Ni2    0.0  0.0  1.0
Ni2    0.0  0.0  1.0
Ni2    0.0  0.0  1.0
Ni2    0.0  0.0  1.0
Ni2    0.0  0.0  1.0
Ni1    0.0  0.0 -1.0
Ni1    0.0  0.0 -1.0
Ni1    0.0  0.0 -1.0
Ni1    0.0  0.0 -1.0
Ni1    0.0  0.0 -1.0
Ni1    0.0  0.0 -1.0
Ni1    0.0  0.0 -1.0
Ni1    0.0  0.0 -1.0
P        0.0 0.0 0.0
P        0.0 0.0 0.0
P        0.0 0.0 0.0
P        0.0 0.0 0.0
P        0.0 0.0 0.0
P        0.0 0.0 0.0
P        0.0 0.0 0.0
P        0.0 0.0 0.0
P        0.0 0.0 0.0
P        0.0 0.0 0.0
P        0.0 0.0 0.0
P        0.0 0.0 0.0
P        0.0 0.0 0.0
P        0.0 0.0 0.0
P        0.0 0.0 0.0
P        0.0 0.0 0.0
P        0.0 0.0 0.0
P        0.0 0.0 0.0
P        0.0 0.0 0.0
P        0.0 0.0 0.0
P        0.0 0.0 0.0
P        0.0 0.0 0.0
P        0.0 0.0 0.0
P        0.0 0.0 0.0
P        0.0 0.0 0.0
P        0.0 0.0 0.0
P        0.0 0.0 0.0
P        0.0 0.0 0.0
P        0.0 0.0 0.0
P        0.0 0.0 0.0
P        0.0 0.0 0.0
P        0.0 0.0 0.0
S        0.0 0.0 0.0
S        0.0 0.0 0.0
S        0.0 0.0 0.0
S        0.0 0.0 0.0
S        0.0 0.0 0.0
S        0.0 0.0 0.0
S        0.0 0.0 0.0
S        0.0 0.0 0.0
S        0.0 0.0 0.0
S        0.0 0.0 0.0
S        0.0 0.0 0.0
S        0.0 0.0 0.0
S        0.0 0.0 0.0
S        0.0 0.0 0.0
S        0.0 0.0 0.0
S        0.0 0.0 0.0
S        0.0 0.0 0.0
S        0.0 0.0 0.0
S        0.0 0.0 0.0
S        0.0 0.0 0.0
S        0.0 0.0 0.0
S        0.0 0.0 0.0
S        0.0 0.0 0.0
S        0.0 0.0 0.0
S        0.0 0.0 0.0
S        0.0 0.0 0.0
S        0.0 0.0 0.0
S        0.0 0.0 0.0
S        0.0 0.0 0.0
S        0.0 0.0 0.0
S        0.0 0.0 0.0
S        0.0 0.0 0.0
S        0.0 0.0 0.0
S        0.0 0.0 0.0
S        0.0 0.0 0.0
S        0.0 0.0 0.0
S        0.0 0.0 0.0
S        0.0 0.0 0.0
S        0.0 0.0 0.0
S        0.0 0.0 0.0
S        0.0 0.0 0.0
S        0.0 0.0 0.0
S        0.0 0.0 0.0
S        0.0 0.0 0.0
S        0.0 0.0 0.0
S        0.0 0.0 0.0
S        0.0 0.0 0.0
S        0.0 0.0 0.0
S        0.0 0.0 0.0
S        0.0 0.0 0.0
S        0.0 0.0 0.0
S        0.0 0.0 0.0
S        0.0 0.0 0.0
S        0.0 0.0 0.0
S        0.0 0.0 0.0
S        0.0 0.0 0.0
S        0.0 0.0 0.0
S        0.0 0.0 0.0
S        0.0 0.0 0.0
S        0.0 0.0 0.0
S        0.0 0.0 0.0
S        0.0 0.0 0.0
S        0.0 0.0 0.0
S        0.0 0.0 0.0
S        0.0 0.0 0.0
S        0.0 0.0 0.0
S        0.0 0.0 0.0
S        0.0 0.0 0.0
S        0.0 0.0 0.0
S        0.0 0.0 0.0
S        0.0 0.0 0.0
S        0.0 0.0 0.0
S        0.0 0.0 0.0
S        0.0 0.0 0.0
S        0.0 0.0 0.0
S        0.0 0.0 0.0
S        0.0 0.0 0.0
S        0.0 0.0 0.0
S        0.0 0.0 0.0
S        0.0 0.0 0.0
S        0.0 0.0 0.0
S        0.0 0.0 0.0
S        0.0 0.0 0.0
S        0.0 0.0 0.0
S        0.0 0.0 0.0
S        0.0 0.0 0.0
S        0.0 0.0 0.0
S        0.0 0.0 0.0
S        0.0 0.0 0.0
S        0.0 0.0 0.0
S        0.0 0.0 0.0
S        0.0 0.0 0.0
S        0.0 0.0 0.0
S        0.0 0.0 0.0
S        0.0 0.0 0.0
S        0.0 0.0 0.0
